(set-info :source |printed by MathSAT|)
(declare-fun |!{$(in_main#0)<a1.1>}| () (Array Int Int))
(declare-fun |!{$(in_main#0)<a1.1>}.next| () (Array Int Int))
(declare-fun |!{$(in_main#0)<a2.2>}| () (Array Int Int))
(declare-fun |!{$(in_main#0)<a2.2>}.next| () (Array Int Int))
(declare-fun |!{$(in_main#0)<a3.3>}| () (Array Int Int))
(declare-fun |!{$(in_main#0)<a3.3>}.next| () (Array Int Int))
(declare-fun |!{$(in_main#0)<N>}| () Int)
(declare-fun |!{$(in_main#0)<N>}.next| () Int)
(declare-fun |!{$(in_main#0)<a>}| () Int)
(declare-fun |!{$(in_main#0)<a>}.next| () Int)
(declare-fun |!{$(in_main#0)<i>}| () Int)
(declare-fun |!{$(in_main#0)<i>}.next| () Int)
(declare-fun |!{$(in_main#0)<x>}| () Int)
(declare-fun |!{$(in_main#0)<x>}.next| () Int)
(declare-fun |!{$(in_main#0)<$(in___VERIFIER_nondet_int#0)<h#<__VERIFIER_nondet_int.return>>>}| () Int)
(declare-fun |!{$(in_main#0)<$(in___VERIFIER_nondet_int#1)<h#<__VERIFIER_nondet_int.return>>>}| () Int)
(declare-fun !pc () Int)
(declare-fun !pc.next () Int)
(declare-fun |%{$(in_main#0)<i>}#1| () Int)
(declare-fun |%{$(in_main#0)<x>}#1| () Int)
(declare-fun |%{$(in_main#0)<a1.1>}#1| () (Array Int Int))
(declare-fun |%{$(in_main#0)<a2.2>}#1| () (Array Int Int))
(declare-fun |%{$(in_main#0)<a3.3>}#1| () (Array Int Int))
(define-fun .def_37 () Int (! !pc :next !pc.next))
(define-fun .def_40 () Bool (! (= .def_37 2) :init true))
(define-fun .def_199 () Bool (= .def_37 30))
(define-fun .def_176 () Bool (= !pc.next 51))
(define-fun .def_202 () Bool (and .def_176 .def_199))
(define-fun .def_16 () Int (! |!{$(in_main#0)<a>}| :next |!{$(in_main#0)<a>}.next|))
(define-fun .def_14 () Int (! |!{$(in_main#0)<N>}| :next |!{$(in_main#0)<N>}.next|))
(define-fun .def_183 () Bool (<= .def_14 .def_16))
(define-fun .def_170 () Bool (= |!{$(in_main#0)<i>}.next| 0))
(define-fun .def_10 () (Array Int Int) (! |!{$(in_main#0)<a2.2>}| :next |!{$(in_main#0)<a2.2>}.next|))
(define-fun .def_84 () Bool (= .def_10 |!{$(in_main#0)<a2.2>}.next|))
(define-fun .def_8 () (Array Int Int) (! |!{$(in_main#0)<a1.1>}| :next |!{$(in_main#0)<a1.1>}.next|))
(define-fun .def_82 () Bool (= .def_8 |!{$(in_main#0)<a1.1>}.next|))
(define-fun .def_97 () Bool (and .def_82 .def_84))
(define-fun .def_12 () (Array Int Int) (! |!{$(in_main#0)<a3.3>}| :next |!{$(in_main#0)<a3.3>}.next|))
(define-fun .def_86 () Bool (= .def_12 |!{$(in_main#0)<a3.3>}.next|))
(define-fun .def_98 () Bool (and .def_86 .def_97))
(define-fun .def_88 () Bool (= .def_14 |!{$(in_main#0)<N>}.next|))
(define-fun .def_99 () Bool (and .def_88 .def_98))
(define-fun .def_90 () Bool (= .def_16 |!{$(in_main#0)<a>}.next|))
(define-fun .def_100 () Bool (and .def_90 .def_99))
(define-fun .def_171 () Bool (and .def_100 .def_170))
(define-fun .def_20 () Int (! |!{$(in_main#0)<x>}| :next |!{$(in_main#0)<x>}.next|))
(define-fun .def_94 () Bool (= .def_20 |!{$(in_main#0)<x>}.next|))
(define-fun .def_172 () Bool (and .def_94 .def_171))
(define-fun .def_198 () Bool (and .def_172 .def_183))
(define-fun .def_203 () Bool (and .def_198 .def_202))
(define-fun .def_68 () Bool (= !pc.next 30))
(define-fun .def_200 () Bool (and .def_68 .def_199))
(define-fun .def_191 () Int (* (- 1) |!{$(in_main#0)<a>}.next|))
(define-fun .def_192 () Int (+ .def_16 .def_191))
(define-fun .def_193 () Bool (= .def_192 (- 1)))
(define-fun .def_185 () (Array Int Int) (store .def_8 .def_16 |!{$(in_main#0)<$(in___VERIFIER_nondet_int#1)<h#<__VERIFIER_nondet_int.return>>>}|))
(define-fun .def_187 () Bool (= |!{$(in_main#0)<a1.1>}.next| .def_185))
(define-fun .def_188 () Bool (and .def_84 .def_187))
(define-fun .def_189 () Bool (and .def_86 .def_188))
(define-fun .def_190 () Bool (and .def_88 .def_189))
(define-fun .def_194 () Bool (and .def_190 .def_193))
(define-fun .def_18 () Int (! |!{$(in_main#0)<i>}| :next |!{$(in_main#0)<i>}.next|))
(define-fun .def_92 () Bool (= .def_18 |!{$(in_main#0)<i>}.next|))
(define-fun .def_195 () Bool (and .def_92 .def_194))
(define-fun .def_196 () Bool (and .def_94 .def_195))
(define-fun .def_184 () Bool (not .def_183))
(define-fun .def_197 () Bool (and .def_184 .def_196))
(define-fun .def_201 () Bool (and .def_197 .def_200))
(define-fun .def_204 () Bool (or .def_201 .def_203))
(define-fun .def_175 () Bool (= .def_37 51))
(define-fun .def_153 () Bool (= !pc.next 65))
(define-fun .def_179 () Bool (and .def_153 .def_175))
(define-fun .def_133 () Bool (<= .def_14 .def_18))
(define-fun .def_173 () Bool (and .def_133 .def_172))
(define-fun .def_180 () Bool (and .def_173 .def_179))
(define-fun .def_177 () Bool (and .def_175 .def_176))
(define-fun .def_160 () Int (select .def_8 .def_18))
(define-fun .def_161 () (Array Int Int) (store .def_10 .def_18 .def_160))
(define-fun .def_162 () Bool (= |!{$(in_main#0)<a2.2>}.next| .def_161))
(define-fun .def_163 () Bool (and .def_82 .def_162))
(define-fun .def_164 () Bool (and .def_86 .def_163))
(define-fun .def_165 () Bool (and .def_88 .def_164))
(define-fun .def_166 () Bool (and .def_90 .def_165))
(define-fun .def_142 () Int (* (- 1) |!{$(in_main#0)<i>}.next|))
(define-fun .def_143 () Int (+ .def_18 .def_142))
(define-fun .def_144 () Bool (= .def_143 (- 1)))
(define-fun .def_167 () Bool (and .def_144 .def_166))
(define-fun .def_168 () Bool (and .def_94 .def_167))
(define-fun .def_134 () Bool (not .def_133))
(define-fun .def_169 () Bool (and .def_134 .def_168))
(define-fun .def_178 () Bool (and .def_169 .def_177))
(define-fun .def_181 () Bool (or .def_178 .def_180))
(define-fun .def_152 () Bool (= .def_37 65))
(define-fun .def_122 () Bool (= !pc.next 79))
(define-fun .def_156 () Bool (and .def_122 .def_152))
(define-fun .def_148 () Bool (= |!{$(in_main#0)<x>}.next| 0))
(define-fun .def_101 () Bool (and .def_92 .def_100))
(define-fun .def_149 () Bool (and .def_101 .def_148))
(define-fun .def_150 () Bool (and .def_133 .def_149))
(define-fun .def_157 () Bool (and .def_150 .def_156))
(define-fun .def_154 () Bool (and .def_152 .def_153))
(define-fun .def_135 () Int (select .def_10 .def_18))
(define-fun .def_136 () (Array Int Int) (store .def_12 .def_18 .def_135))
(define-fun .def_138 () Bool (= |!{$(in_main#0)<a3.3>}.next| .def_136))
(define-fun .def_139 () Bool (and .def_97 .def_138))
(define-fun .def_140 () Bool (and .def_88 .def_139))
(define-fun .def_141 () Bool (and .def_90 .def_140))
(define-fun .def_145 () Bool (and .def_141 .def_144))
(define-fun .def_146 () Bool (and .def_94 .def_145))
(define-fun .def_147 () Bool (and .def_134 .def_146))
(define-fun .def_155 () Bool (and .def_147 .def_154))
(define-fun .def_158 () Bool (or .def_155 .def_157))
(define-fun .def_126 () Bool (= !pc.next 0))
(define-fun .def_117 () Bool (= .def_37 79))
(define-fun .def_127 () Bool (and .def_117 .def_126))
(define-fun .def_71 () Bool (<= .def_14 .def_20))
(define-fun .def_109 () Bool (and .def_71 .def_82))
(define-fun .def_110 () Bool (and .def_84 .def_109))
(define-fun .def_111 () Bool (and .def_86 .def_110))
(define-fun .def_112 () Bool (and .def_88 .def_111))
(define-fun .def_113 () Bool (and .def_90 .def_112))
(define-fun .def_114 () Bool (and .def_92 .def_113))
(define-fun .def_115 () Bool (and .def_94 .def_114))
(define-fun .def_128 () Bool (and .def_115 .def_127))
(define-fun .def_123 () Bool (and .def_117 .def_122))
(define-fun .def_103 () Int (* (- 1) |!{$(in_main#0)<x>}.next|))
(define-fun .def_104 () Int (+ .def_20 .def_103))
(define-fun .def_105 () Bool (= .def_104 (- 1)))
(define-fun .def_106 () Bool (and .def_101 .def_105))
(define-fun .def_74 () Int (select .def_12 .def_20))
(define-fun .def_73 () Int (select .def_8 .def_20))
(define-fun .def_75 () Bool (= .def_73 .def_74))
(define-fun .def_76 () Int (ite .def_75 1 0))
(define-fun .def_77 () Bool (= .def_76 0))
(define-fun .def_78 () Bool (not .def_77))
(define-fun .def_107 () Bool (and .def_78 .def_106))
(define-fun .def_72 () Bool (not .def_71))
(define-fun .def_108 () Bool (and .def_72 .def_107))
(define-fun .def_124 () Bool (and .def_108 .def_123))
(define-fun .def_119 () Bool (= !pc.next 99))
(define-fun .def_120 () Bool (and .def_117 .def_119))
(define-fun .def_83 () Bool (and .def_77 .def_82))
(define-fun .def_85 () Bool (and .def_83 .def_84))
(define-fun .def_87 () Bool (and .def_85 .def_86))
(define-fun .def_89 () Bool (and .def_87 .def_88))
(define-fun .def_91 () Bool (and .def_89 .def_90))
(define-fun .def_93 () Bool (and .def_91 .def_92))
(define-fun .def_95 () Bool (and .def_93 .def_94))
(define-fun .def_96 () Bool (and .def_72 .def_95))
(define-fun .def_121 () Bool (and .def_96 .def_120))
(define-fun .def_125 () Bool (or .def_121 .def_124))
(define-fun .def_129 () Bool (or .def_125 .def_128))
(define-fun .def_69 () Bool (and .def_40 .def_68))
(define-fun .def_65 () Bool (= |!{$(in_main#0)<x>}.next| |%{$(in_main#0)<x>}#1|))
(define-fun .def_63 () Bool (= |!{$(in_main#0)<i>}.next| |%{$(in_main#0)<i>}#1|))
(define-fun .def_61 () Bool (= |!{$(in_main#0)<a>}.next| 0))
(define-fun .def_59 () Bool (= |!{$(in_main#0)<N>}.next| |!{$(in_main#0)<$(in___VERIFIER_nondet_int#0)<h#<__VERIFIER_nondet_int.return>>>}|))
(define-fun .def_57 () Bool (= |!{$(in_main#0)<a3.3>}.next| |%{$(in_main#0)<a3.3>}#1|))
(define-fun .def_55 () Bool (= |!{$(in_main#0)<a2.2>}.next| |%{$(in_main#0)<a2.2>}#1|))
(define-fun .def_54 () Bool (= |!{$(in_main#0)<a1.1>}.next| |%{$(in_main#0)<a1.1>}#1|))
(define-fun .def_56 () Bool (and .def_54 .def_55))
(define-fun .def_58 () Bool (and .def_56 .def_57))
(define-fun .def_60 () Bool (and .def_58 .def_59))
(define-fun .def_62 () Bool (and .def_60 .def_61))
(define-fun .def_64 () Bool (and .def_62 .def_63))
(define-fun .def_66 () Bool (and .def_64 .def_65))
(define-fun .def_70 () Bool (and .def_66 .def_69))
(define-fun .def_130 () Bool (or .def_70 .def_129))
(define-fun .def_159 () Bool (or .def_130 .def_158))
(define-fun .def_182 () Bool (or .def_159 .def_181))
(define-fun .def_205 () Bool (! (or .def_182 .def_204) :trans true))
(define-fun .def_131 () Bool (= .def_37 99))
(define-fun .def_206 () Bool (! (not .def_131) :invar-property 0 :invar-property-name ||))
(assert true)
